param n := 16;
param numVehicles := 2;
set F := 34;
set S := 39 40 41;

param arr := 1 0 2 0 3 0 4 0 5 0 6 0 7 0 8 0 9 276 10 32 11 115 12 14 13 198 14 160 15 180 16 366 17 402 18 322 19 179 20 138 21 82 22 49 23 400 24 298 25 0 26 0 27 0 28 0 29 0 30 0 31 0 32 0 33 0 34 0 35 0 36 0 37 0 38 0 39 0 40 0 41 0;
param dep := 1 1440 2 1440 3 1440 4 1440 5 1440 6 1440 7 1440 8 1440 9 291 10 47 11 130 12 29 13 213 14 175 15 195 16 381 17 417 18 337 19 194 20 153 21 97 22 64 23 415 24 313 25 1440 26 1440 27 1440 28 1440 29 1440 30 1440 31 1440 32 1440 33 480 34 480 35 480 36 480 37 480 38 480 39 480 40 480 41 480;
param d := 1 3 2 3 3 3 4 3 5 3 6 3 7 3 8 3 9 3 10 3 11 3 12 3 13 3 14 3 15 3 16 3 17 3 18 3 19 3 20 3 21 3 22 3 23 3 24 3 25 3 26 3 27 3 28 3 29 3 30 3 31 3 32 3 33 0 34 0 35 0 36 0 37 0 38 0 39 0 40 0 41 0;
param l := 1 1 2 1 3 1 4 1 5 1 6 1 7 1 8 1 9 1 10 1 11 1 12 1 13 1 14 1 15 1 16 1 17 -1 18 -1 19 -1 20 -1 21 -1 22 -1 23 -1 24 -1 25 -1 26 -1 27 -1 28 -1 29 -1 30 -1 31 -1 32 -1;
param u := 1 30 2 30 3 30 4 30 5 30 6 30 7 30 8 30 9 30 10 30 11 30 12 30 13 30 14 30 15 30 16 30;
param c := 1 3 2 3;
param Q := 14.85;
param Binit := 1 14.85 2 14.85;
param r := 0.0;
param alpha := 39 0.055 40 0.055 41 0.055;
param Tp := 480;
param w1 := 0.75;
param w2 := 0.25;
param G:
 1 2 3 4 5 6 7 8 9 10 11 12 13 14 15 16 17 18 19 20 21 22 23 24 25 26 27 28 29 30 31 32 33 34 35 36 37 38 39 40 41:=
1 3.0 3.0 3.0 3.0 3.0 3.0 3.0 3.0 3.0 3.0 3.0 3.0 3.0 3.0 3.0 3.0 2.0 2.0 2.0 2.0 2.0 2.0 2.0 2.0 2.0 2.0 2.0 2.0 2.0 2.0 2.0 2.0 3.0 3.0 3.0 3.0 3.0 3.0 3.0 3.0 3.0
2 3.0 3.0 3.0 3.0 3.0 3.0 3.0 3.0 3.0 3.0 3.0 3.0 3.0 3.0 3.0 3.0 2.0 2.0 2.0 2.0 2.0 2.0 2.0 2.0 2.0 2.0 2.0 2.0 2.0 2.0 2.0 2.0 3.0 3.0 3.0 3.0 3.0 3.0 3.0 3.0 3.0
;
